outputs/case_67.model.txt
license_issued = True
qualification_conditions_met = True
financial_and_business_management_compliant = False
bank_operates_as_broker = False
is_agent = True
branch_establishment_conditions_met = True
responsibility_insurance_covered = True
duty_of_loyalty_met = True
guarantee_deposit_amount = 1000000
fee_charged = 3000000
fee_disclosure_made = False
duty_of_care_met = True
required_documents_submitted = True
is_notary = False
guarantee_insurance_covered = False
application_procedures_followed = True
board_supervisor_manager_qualifications_met = True
authority_defined_minimum_guarantee_deposit = 1000000
written_analysis_report_provided = True
grounds_for_dismissal_complied = True
license_revocation_procedures_compliant = True
other_mandatory_requirements_compliant = True
approved_by_authority = True
bank_operates_as_agent = True
bank_approved_by_authority = True
education_and_training_compliant = True
is_broker = False
submit_false_or_incomplete_business_or_financial_reports = False
violate_article_165_first_paragraph = False
execute_unapproved_insurance_business = False
fail_to_report_to_agent_trade_association = False
management_rules_compliance = False
relevant_insurance_covered = True
pay_commission_to_non_actual_solicitors = False
broker_report_and_fee_disclosure_complied = True
illegal_collection_of_money_or_benefits = False
false_information_on_license_application = False
induce_customer_to_terminate_contract_or_pay_by_loan_or_deposit = False
illegal_insurance_payment = False
hold_position_in_insurance_or_association = False
use_unapproved_advertisement_content = False
violation_penalty_applicable = False
license_and_guarantee_compliance = True
use_license_for_others = False
employ_unqualified_insurance_solicitors = False
misappropriate_or_embezzle_premiums_or_claims = False
violate_financial_or_business_management_rules = False
embezzle_fraud_forgery_conviction = False
fail_to_cancel_license_within_deadline = False
sell_unapproved_foreign_policy_discount_benefit_certificates = False
agent_misconduct_detected = False
authorize_third_party_to_operate = False
fail_to_confirm_financial_consumer_suitability = False
minimum_guarantee_deposit = 1000000
unauthorized_suspension_or_termination_of_business = False
coerce_or_induce_or_restrict_contract_freedom_or_ask_extra_benefits = False
violate_article_163_seventh_paragraph = False
fail_to_appoint_agent_after_resignation = False
exaggerate_or_mislead_promotion_or_recruitment = False
fail_to_fill_solicitation_report_truthfully = False
operate_without_approval = False
violate_article_163_fifth_paragraph_applied = False
penalty = False
broker_duties_complied = True
induce_policyholder_to_surrender_or_transfer_or_loan = False
submit_application_documents_of_unregistered_agents = False
other_violations_of_rules_or_laws = False
spread_false_statements_or_disrupt_financial_order = False
operate_outside_license_scope = False
conceal_important_contract_info = False
bank_authority_approval = True
other_behaviors_damaging_insurance_image = False